Nb of jobs, Nb of Machines, Time seed, Machine seed, Upper bound, Lower bound
3,10,-1,-1,-1,-1
Times
11,72,43,21,24,72,44,19,15,54
10,38,75,43,2,41,97,75,32,74
4,27,51,43,78,72,6,89,90,36
Machines
6,1,7,5,8,2,10,4,9,3
8,1,2,10,6,5,9,4,7,3
2,9,3,6,4,10,5,1,8,7
